c --- [ banner ] -------------------------------------------------------------
c 
c CaDiCaL Radically Simplified CDCL SAT Solver
c Copyright (c) 2016-2021 A. Biere, M. Fleury, N. Froleyks
c 
c Version 1.5.2 9c38a080b32c28d805e8e6ca21849856b0cda605
c g++ (Ubuntu 7.5.0-3ubuntu1~18.04) 7.5.0 -Wall -Wextra -O3 -DNDEBUG
c Wed Feb 16 23:15:36 EST 2022 Linux fac-vanhoeve01 5.4.0-99-generic x86_64
c 
c --- [ limit ] --------------------------------------------------------------
c 
c setting time limit to 600 seconds real time (due to '-t 600')
c setting conflict limit to 1000000000 conflicts (due to '1000000000')
c 
c --- [ parsing input ] ------------------------------------------------------
c 
c reading DIMACS file from 'ddfwcnfs/wap07a.col_40.cnf'
c opening file to read 'ddfwcnfs/wap07a.col_40.cnf'
c found 'p cnf 72360 3903769' header
c parsed 3903769 clauses in 2.13 seconds process time
c closing file 'ddfwcnfs/wap07a.col_40.cnf'
c after reading 62064102 bytes 59.2 MB
c 
c --- [ options ] ------------------------------------------------------------
c 
c all options are set to their default value
c 
c --- [ solving ] ------------------------------------------------------------
c 
c time measured in process time since initialization
c 
c  seconds   reductions  redundant   irredundant
c          MB    restarts       trail        variables
c           level   conflicts       glue          remaining
c 
c *  2.13 337  0 0   0    0    0  0% 0 3897796 70437 97%
c {  2.16 338  0 0   0    0    0  0% 0 3897796 70437 97%
c -  2.84 338 36 1   9  300  237 13% 25 3864379 70437 97%
c }  2.96 338 34 1  57 1001  621 12% 28 3864379 70437 97%
c [  2.96 338  0 1  57 1001  621  0% 0 3864379 70437 97%
c O  2.96 338 38 1  57 1002  622  4% 38 3864379 70437 97%
c -  4.72 427 41 2  57 1852  863  5% 38 3864379 70437 97%
c ]  4.81 427 45 2  58 3003 1804  5% 41 3864379 70437 97%
c {  4.81 427 34 2  58 3003 1804 12% 28 3864379 70437 97%
c F  4.81 427 34 2  58 3004 1805 12% 28 3864379 70437 97%
c -  6.15 427 69 3 337 4180 1618 12% 32 3864379 70437 97%
c #  9.19 426 55 3 561 6005 2370 12% 34 3864379 70437 97%
c }  9.29 426 53 3 578 7003 3006 12% 35 3864379 70437 97%
c [  9.29 426 45 3 578 7003 3006  5% 41 3864379 70437 97%
c - 10.52 426 47 4 579 7284 2028  5% 41 3864379 70437 97%
c I 10.74 426 54 4 580 10007 3956  5% 41 3864379 70437 97%
c - 12.05 426 586 5 581 11164 3340  8% 40 3864379 70437 97%
c s 13.28 440 911 5 582 11581 3519 10% 42 3864379 70437 97%
c e 20.42 441 911 5 582 11581  421 10% 42 3268041 64185 89%
c s 21.67 463 911 5 582 11581  420 10% 42 3268041 64185 89%
c 
c  seconds    reductions   redundant    irredundant
c          MB     restarts        trail         variables
c            level    conflicts       glue           remaining
c 
c ^ 22.29 463 911 5 582 11581  420 10% 42 3268041 64185 89%
c ] 27.37 451 960 5 583 15003 3198 38% 53 3268041 64185 89%
c { 27.37 451 53 5 583 15003 3198 14% 35 3268041 64185 89%
c B 27.39 451 54 5 585 15008 3203 14% 35 3268041 64185 89%
c - 28.73 452 62 6 616 15821 3652 13% 34 3268041 64185 89%
c W 30.26 452 51 6 616 21010 7525  9% 29 3268041 64185 89%
c - 31.42 452 53 7 634 21104 4970  9% 29 3268041 64185 89%
c - 32.96 452 47 8 2168 27138 3121  8% 31 3268041 64185 89%
c F 33.04 452 47 8 2363 28012 3390  8% 32 3268041 64185 89%
c } 36.14 452 45 8 2463 31003 5103  9% 32 3268041 64185 89%
c [ 36.14 452 960 8 2463 31003 5103 38% 53 3268041 64185 89%
c - 37.55 453 769 9 2464 33927 5384 32% 57 3268041 64185 89%
c s 37.71 453 751 9 2464 34266 5657 32% 58 3268041 64185 89%
c s 42.92 453 751 9 2464 34266 5654 32% 58 3268041 64185 89%
c ^ 43.50 453 751 9 2464 34266 5654 32% 58 3268041 64185 89%
c B 43.69 453 666 9 2466 36013 7126 28% 57 3268041 64185 89%
c - 46.02 455 647 10 2469 41469 7975 26% 77 3268041 64185 89%
c W 48.04 455 566 10 2470 45014 10773 24% 82 3268041 64185 89%
c - 49.76 455 485 11 2471 49767 8649 21% 84 3268041 64185 89%
c O 53.24 455 423 11 2472 55016 12715 19% 84 3268041 64185 89%
c 
c  seconds    reductions     redundant    irredundant
c          MB      restarts         trail         variables
c            level      conflicts       glue           remaining
c 
c - 54.70 454 378 12 2475 58819 9437 18% 79 3268041 64185 89%
c ] 55.06 454 338 12 2478 63003 12061 16% 74 3268041 64185 89%
c { 55.06 454 45 12 2478 63003 12061  9% 32 3268041 64185 89%
c B 55.31 454 47 12 2480 66017 14411  9% 32 3268041 64185 89%
c s 55.77 454 47 12 2982 68287 15073  9% 32 3268041 64185 89%
c s 61.14 454 47 12 2982 68287 14740  9% 32 3268041 64185 89%
c ^ 61.73 454 47 12 2982 68287 14740  9% 32 3268041 64185 89%
c - 62.92 453 47 13 2996 68628 8804  9% 32 3268041 64185 89%
c W 68.39 453 45 13 3662 78019 13021  9% 33 3268041 64185 89%
c - 69.84 452 47 14 3834 79190 7118  9% 34 3268041 64185 89%
c - 71.91 453 45 15 4456 90505 7717  9% 35 3268041 64185 89%
c # 71.96 453 45 15 4464 91025 7995  9% 35 3268041 64185 89%
c - 74.00 453 43 16 4484 102573 9410  9% 34 3268041 64185 89%
c B 77.08 453 42 16 4484 105026 10834  9% 34 3268041 64185 89%
c s 78.47 453 44 16 5218 113648 11558  9% 35 3268041 64185 89%
c s 83.94 453 44 16 5218 113648 10736  9% 35 3268041 64185 89%
c ^ 84.54 453 44 16 5218 113648 10736  9% 35 3268041 64185 89%
c - 85.86 453 44 17 5299 115396 7213  9% 35 3268041 64185 89%
c W 89.00 453 43 17 5459 120028 9218  9% 35 3268041 64185 89%
c } 89.62 453 43 17 5678 127005 12392  9% 35 3268041 64185 89%
c 
c  seconds    reductions       redundant    irredundant
c          MB      restarts           trail         variables
c            level      conflicts         glue           remaining
c 
c [ 89.62 453 338 17 5678 127005 12392 16% 74 3268041 64185 89%
c - 90.92 453 323 18 5678 128973 8734 16% 72 3268041 64185 89%
c B 91.59 453 276 18 5683 136029 13544 14% 67 3268041 64185 89%
c - 97.41 457 766 19 5686 143307 13693 18% 82 3268041 64185 89%
c W 102.90 457 729 19 5687 153030 21605 21% 89 3268041 64185 89%
c - 105.00 460 817 20 5687 158392 15401 21% 90 3268041 64185 89%
c s 107.33 460 897 20 5690 170351 23095 21% 95 3268041 64185 89%
c s 112.85 460 897 20 5690 170351 23087 21% 95 3268041 64185 89%
c ^ 113.46 460 897 20 5690 170351 23087 21% 95 3268041 64185 89%
c I 113.59 460 888 20 5690 171038 23608 20% 95 3268041 64185 89%
c - 115.42 459 1198 21 5693 174234 16212 21% 95 3268041 64185 89%
c B 120.12 459 955 21 5701 190039 28213 18% 88 3268041 64185 89%
c - 121.30 457 945 22 5701 190829 16792 18% 87 3268041 64185 89%
c - 124.67 457 757 23 5708 208177 18024 15% 80 3268041 64185 89%
c W 129.02 457 740 23 5709 210040 19396 15% 80 3268041 64185 89%
c - 135.23 456 611 24 5717 226279 19403 14% 73 3268041 64185 89%
c O 135.77 456 580 24 5717 231042 23128 13% 71 3268041 64185 89%
c s 136.46 456 531 24 5718 238393 27154 12% 67 3268041 64185 89%
c s 142.11 456 531 24 5718 238393 25627 12% 67 3268041 64185 89%
c - 144.36 454 490 25 5718 245137 16722 12% 64 3268041 64185 89%
c 
c  seconds     reductions       redundant    irredundant
c           MB      restarts           trail         variables
c             level      conflicts         glue           remaining
c 
c B 145.13 454 450 25 5719 253043 22362 11% 61 3268041 64185 89%
c ] 145.94 454 1059 25 5719 255006 24077 12% 68 3268041 64185 89%
c { 145.94 454 43 25 5719 255006 24077  9% 35 3268041 64185 89%
c - 148.00 457 44 26 5843 264749 18560  9% 35 3268041 64185 89%
c F 152.02 457 43 26 5923 276047 24846  8% 35 3268041 64185 89%
c - 153.97 454 42 27 5934 285116 17557  8% 35 3268041 64185 89%
c B 155.36 454 42 27 5993 300055 27448  8% 35 3268041 64185 89%
c - 157.28 455 43 28 6124 306238 18828  8% 35 3268041 64185 89%
c W 165.23 455 45 28 6302 325061 33026  8% 35 3268041 64185 89%
c - 166.80 456 46 29 6346 328112 21519  8% 35 3268041 64185 89%
c - 173.38 455 44 30 6388 350741 20131  8% 35 3268041 64185 89%
c # 173.42 455 44 30 6388 351062 20310  8% 35 3268041 64185 89%
c - 177.13 455 43 31 6437 374123 21583  8% 34 3268041 64185 89%
c B 177.50 455 43 31 6437 378064 24278  8% 34 3268041 64185 89%
c - 183.78 454 42 32 7554 398260 17583  8% 35 3268041 64185 89%
c W 191.43 454 41 32 7752 406065 21286  8% 35 3268041 64185 89%
c - 194.28 455 41 33 7940 423151 18768  8% 35 3268041 64185 89%
c F 195.36 455 40 33 7947 435066 25603  8% 34 3268041 64185 89%
c - 197.84 455 40 34 7956 448797 22653  8% 33 3268041 64185 89%
c B 202.83 455 39 34 7999 465068 33845  8% 33 3268041 64185 89%
c 
c  seconds    reductions        redundant    irredundant
c           MB      restarts           trail         variables
c            level       conflicts         glue           remaining
c 
c - 205.26 455 40 35 10112 475197 20828  8% 33 3268041 64185 89%
c W 215.05 455 39 35 12098 496072 28683  8% 34 3268041 64185 89%
c - 217.33 454 40 36 12642 502351 16014  8% 34 3268041 64185 89%
c } 218.21 454 40 36 13122 511007 20001  8% 35 3268041 64185 89%
c [ 218.21 454 1059 36 13122 511007 20001 12% 68 3268041 64185 89%
c W 231.71 454 958 36 13122 528073 31755 12% 65 3268041 64185 89%
c - 233.10 456 938 37 13122 530262 21715 12% 65 3268041 64185 89%
c - 237.36 458 799 38 13135 558925 26281 12% 62 3268041 64185 89%
c I 237.62 458 782 38 13136 561076 27811 12% 61 3268041 64185 89%
c - 244.39 466 1914 39 13147 588343 30654 16% 77 3268041 64185 89%
c B 245.59 466 1806 39 13151 595082 35869 16% 78 3268041 64185 89%
c - 254.67 468 3810 40 13153 618517 32376 20% 89 3268041 64185 89%
c W 266.17 468 4293 40 13159 630083 42115 22% 93 3268041 64185 89%
c - 269.86 465 3554 41 13168 649444 33820 21% 92 3268041 64185 89%
c s 270.04 465 3554 41 13168 649444 33371 21% 92 3268041 64185 89%
c w 272.83 465 3554 41 13168 649444 33358 21% 92 3268041 64185 89%
c O 275.80 465 3202 41 13175 666085 46587 21% 90 3268041 64185 89%
c - 281.38 461 2750 42 13183 681124 34890 19% 84 3268041 64185 89%
c B 283.74 461 2208 42 13184 703087 49411 17% 76 3268041 64185 89%
c - 286.43 460 2505 43 13185 713558 33673 19% 77 3268041 64185 89%
c 
c  seconds      reductions        redundant    irredundant
c           MB        restarts           trail         variables
c             level        conflicts         glue           remaining
c 
c W 301.14 460 2078 43 13186 741089 53692 23% 80 3268041 64185 89%
c - 302.98 462 1973 44 13186 746746 32947 23% 78 3268041 64185 89%
c I 310.02 462 1438 44 13186 780090 58607 20% 69 3268041 64185 89%
c - 311.69 462 1663 45 13186 780688 35107 21% 76 3268041 64185 89%
c - 336.40 538 8641 46 13193 815387 38991 30% 237 3268041 64185 89%
c B 337.14 538 8251 46 13196 820091 42681 29% 230 3268041 64185 89%
c - 342.84 464 6110 47 13209 850840 37791 24% 188 3268041 64185 89%
c W 359.16 464 5528 47 13215 861092 45602 23% 177 3268041 64185 89%
c - 365.63 469 5772 48 13217 887045 39746 24% 162 3268041 64185 89%
c O 368.37 469 5043 48 13227 903094 52847 24% 149 3268041 64185 89%
c - 371.82 463 4107 49 13235 924005 39908 21% 130 3268041 64185 89%
c B 374.69 463 3309 49 13247 946095 55789 19% 113 3268041 64185 89%
c - 383.21 468 3516 50 13248 961719 42414 21% 120 3268041 64185 89%
c W 401.55 468 2692 50 13249 990097 64276 21% 110 3268041 64185 89%
c - 404.02 466 3168 51 13249 1000188 41700 24% 106 3268041 64185 89%
c ] 408.17 466 2988 51 13262 1023007 59466 25% 106 3268041 64185 89%
c { 408.17 466 40 51 13262 1023007 59466  8% 35 3268041 64185 89%
c # 409.41 466 40 51 13545 1035101 65630  8% 35 3268041 64185 89%
c - 410.93 464 40 52 13549 1039411 38619  8% 35 3268041 64185 89%
c - 418.57 457 39 53 13672 1079390 33929  8% 35 3268041 64185 89%
c 
c  seconds    reductions         redundant    irredundant
c           MB      restarts            trail         variables
c            level        conflicts         glue           remaining
c 
c B 418.73 457 39 53 13672 1081103 34773  8% 35 3268041 64185 89%
c - 424.12 459 41 54 14110 1120122 39301  8% 35 3268041 64185 89%
c s 424.34 459 41 54 14110 1120122 39236  8% 35 3268041 64185 89%
c w 427.33 459 41 54 14110 1120122 39223  8% 35 3268041 64185 89%
c W 443.05 459 47 54 14300 1128105 45485  8% 35 3268041 64185 89%
c - 450.10 458 46 55 14732 1161608 36837  8% 35 3268041 64185 89%
c F 451.34 458 45 55 14833 1176106 44289  8% 35 3268041 64185 89%
c - 454.79 458 43 56 14902 1203849 37165  8% 34 3268041 64185 89%
c B 456.81 458 41 56 14966 1225107 52164  8% 34 3268041 64185 89%
c - 459.66 457 41 57 15533 1246845 35683  8% 34 3268041 64185 89%
c W 482.00 457 40 57 15900 1275112 50372  8% 34 3268041 64185 89%
c - 484.47 457 40 58 16078 1290595 32525  8% 34 3268041 64185 89%
c # 487.75 457 39 58 16422 1326114 50296  8% 35 3268041 64185 89%
c - 489.62 457 39 59 16453 1335099 32736  8% 35 3268041 64185 89%
c B 493.77 457 39 59 16855 1378115 59268  8% 35 3268041 64185 89%
c - 498.14 458 40 60 17392 1380357 36660  8% 35 3268041 64185 89%
c - 503.37 458 41 61 18186 1426370 38178  8% 35 3268041 64185 89%
c W 522.03 458 41 61 18203 1431118 41054  8% 35 3268041 64185 89%
c - 527.03 458 41 62 18670 1473137 38717  8% 35 3268041 64185 89%
c F 528.32 458 40 62 18781 1485119 45683  8% 35 3268041 64185 89%
c 
c  seconds    reductions         redundant    irredundant
c           MB      restarts            trail         variables
c            level        conflicts         glue           remaining
c 
c - 535.67 458 40 63 18875 1520657 42111  7% 35 3268041 64185 89%
c B 537.88 458 39 63 18925 1540120 54857  7% 34 3268041 64185 89%
c - 541.93 458 40 64 19754 1568932 39583  7% 35 3268041 64185 89%
c W 565.60 458 40 64 20241 1596121 53527  8% 35 3268041 64185 89%
c - 568.76 458 40 65 20502 1617961 35864  8% 36 3268041 64185 89%
c # 574.95 458 39 65 20881 1653123 55531  8% 36 3268041 64185 89%
c - 577.32 458 40 66 20975 1667746 37949  8% 36 3268041 64185 89%
c s 577.51 458 40 66 20975 1667746 37906  8% 36 3268041 64185 89%
c w 580.28 458 40 66 20975 1667746 37893  8% 36 3268041 64185 89%
c B 584.96 458 39 66 21063 1711124 64118  8% 36 3268041 64185 89%
c - 587.02 459 40 67 21216 1718283 42139  8% 36 3268041 64185 89%
c - 595.70 459 41 68 21805 1769577 40959  8% 37 3268041 64185 89%
c } 600.26 459 41 68 21820 1770124 41303  8% 37 3268041 64185 89%
c ? 600.26 459 41 68 21820 1770124 41303  8% 37 3268041 64185 89%
c 
c --- [ result ] -------------------------------------------------------------
c 
c UNKNOWN
c 
c --- [ run-time profiling ] -------------------------------------------------
c 
c process time taken by individual solving procedures
c (percentage relative to process time for solving)
c 
c       478.48   80.00% search
c       163.93   27.41% stable
c       163.63   27.36% walk
c       150.89   25.23% unstable
c       119.64   20.00% simplify
c        30.16    5.04% ternary
c        18.42    3.08% elim
c        17.71    2.96% vivify
c        16.29    2.72% probe
c         4.07    0.68% subsume
c         2.13    0.36% parse
c         0.03    0.01% lucky
c   =================================
c       598.12   99.64% solve
c 
c last line shows process time for solving
c (percentage relative to total process time)
c 
c --- [ statistics ] ---------------------------------------------------------
c 
c chronological:            302235        17.07 %  of conflicts
c conflicts:               1770124      2959.47    per second
c decisions:               2897464      4844.28    per second
c eliminated:                 6252         8.64 %  of all variables
c fixed:                      1923         2.66 %  of all variables
c learned:                 1751467        98.95 %  per conflict
c learned_lits:          229878522       100.00 %  learned literals
c minimized:                     0         0.00 %  learned literals
c shrunken:               89592691        38.97 %  learned literals
c minishrunken:            6228672         2.71 %  learned literals
c propagations:          661875688         1.11 M  per second
c reduced:                 1118039        63.16 %  per conflict
c rephased:                     59     30002.10    interval
c restarts:                  21820        81.12    interval
c stabilizing:                   5        38.53 %  of conflicts
c subsumed:                 588976         5.15 %  of all clauses
c strengthened:              16765         0.15 %  of all clauses
c vivified:                     70         0.00 %  of all clauses
c walked:                       19     93164.42    interval
c weakened:                 670291         2.73    average size
c 
c seconds are measured in process time for solving
c 
c --- [ resources ] ----------------------------------------------------------
c 
c total process time since initialization:       600.26    seconds
c total real time since initialization:          600.32    seconds
c maximum resident set size of process:          634.00    MB
c 
c --- [ shutting down ] ------------------------------------------------------
c 
c exit 0
